(set-logic ALL)
(declare-fun seed0_T_1 () Int)
(declare-fun seed0_T_2 () Bool)
(declare-fun seed0_T_3 () Bool)
(declare-fun seed0_var_0xINPUT_173356 () String)
(assert (and (or (>= seed0_T_1 (str.len seed0_var_0xINPUT_173356)) (str.suffixof (str.++ seed0_var_0xINPUT_173356 "bLaNEl3q") (str.++ seed0_var_0xINPUT_173356 "UA7ZemTORo6IDd"))) (or (= seed0_T_2 (< 0 seed0_T_1)) (not (str.suffixof (str.++ seed0_var_0xINPUT_173356 "RYlJWMdhZSxnuBm9t3") (str.++ seed0_var_0xINPUT_173356 "")))) (or (= seed0_T_3 (not seed0_T_2)) (not (= (mod seed0_T_1 seed0_T_1) (* seed0_T_1 seed0_T_1)))) (or seed0_T_3 (=> (< (- seed0_T_1 444) (- seed0_T_1 83)) (<= (div seed0_T_1 seed0_T_1) (mod seed0_T_1 seed0_T_1))))))
(check-sat)
(exit)